NAME : problems/40-tsp/instance-19.tsp
COMMENT : No Comment
TYPE : TSP
DIMENSION: 40
EDGE_WEIGHT_TYPE : EUC_2D
NODE_COORD_SECTION
1 6013 2407 
2 1681 7635 
3 324 2632 
4 7002 4579 
5 836 9307 
6 1015 9417 
7 8293 4088 
8 9507 2037 
9 1757 7404 
10 9460 3815 
11 6110 1598 
12 7843 3024 
13 214 6751 
14 4278 9652 
15 8155 8673 
16 6270 5615 
17 2767 3159 
18 155 8632 
19 6818 7062 
20 1232 6958 
21 5211 1769 
22 7063 4408 
23 3876 6078 
24 7973 5143 
25 2547 819 
26 9541 1061 
27 8595 5254 
28 9170 4199 
29 4569 5306 
30 9532 5531 
31 962 5615 
32 4076 5245 
33 2443 8749 
34 3915 3399 
35 5872 1483 
36 253 711 
37 5989 242 
38 9839 8299 
39 9019 3743 
40 9595 3580 
EOF
